(declare-fun var0 () String)
(assert (RegexIn var0 (RegexConcat (RegexPlus (RegexUnion (RegexUnion (RegexStar (RegexStar (RegexStar (RegexStar (RegexStar (RegexStar (RegexStar (RegexUnion (RegexUnion (RegexUnion (Str2Reg "PP") (Str2Reg "QQ")) (RegexUnion (Str2Reg "R") (Str2Reg "SSS"))) (RegexPlus (RegexUnion (Str2Reg "T") (Str2Reg "U"))))))))))) (RegexUnion (RegexPlus (RegexPlus (RegexPlus (RegexStar (RegexPlus (RegexUnion (RegexUnion (RegexStar (RegexPlus (Str2Reg "VV"))) (RegexStar (RegexStar (Str2Reg "W")))) (RegexUnion (RegexStar (RegexStar (Str2Reg "XXX"))) (RegexPlus (RegexStar (Str2Reg "Y")))))))))) (RegexStar (RegexStar (RegexUnion (RegexUnion (RegexPlus (RegexPlus (RegexUnion (RegexUnion (RegexPlus (Str2Reg "ZZ")) (RegexUnion (Str2Reg "!") (Str2Reg "\"\""))) (RegexPlus (RegexPlus (Str2Reg "##")))))) (RegexUnion (RegexStar (RegexPlus (RegexStar (RegexStar (Str2Reg "$$"))))) (RegexStar (RegexUnion (RegexUnion (RegexPlus (Str2Reg "%")) (RegexUnion (Str2Reg "&&&") (Str2Reg "''"))) (RegexStar (RegexStar (Str2Reg "("))))))) (RegexStar (RegexUnion (RegexPlus (RegexPlus (RegexPlus (RegexStar (Str2Reg ")"))))) (RegexUnion (RegexStar (RegexUnion (RegexPlus (Str2Reg "***")) (RegexUnion (Str2Reg "++") (Str2Reg ",")))) (RegexPlus (RegexPlus (RegexUnion (Str2Reg "-") (Str2Reg "..")))))))))))) (RegexUnion (RegexStar (RegexUnion (RegexUnion (RegexPlus (RegexUnion (RegexStar (RegexStar (RegexPlus (RegexUnion (RegexStar (Str2Reg "///")) (RegexPlus (Str2Reg ":::")))))) (RegexPlus (RegexStar (RegexUnion (RegexStar (RegexPlus (Str2Reg ";;"))) (RegexPlus (RegexStar (Str2Reg "<")))))))) (RegexUnion (RegexPlus (RegexStar (RegexPlus (RegexUnion (RegexStar (RegexPlus (Str2Reg "==="))) (RegexPlus (RegexUnion (Str2Reg ">>") (Str2Reg "??"))))))) (RegexUnion (RegexStar (RegexUnion (RegexStar (RegexStar (RegexUnion (Str2Reg "@") (Str2Reg "[[")))) (RegexPlus (RegexUnion (RegexStar (Str2Reg "\\\\\\")) (RegexPlus (Str2Reg "]]")))))) (RegexUnion (RegexStar (RegexStar (RegexStar (RegexStar (Str2Reg "^"))))) (RegexStar (RegexStar (RegexPlus (RegexPlus (Str2Reg "__"))))))))) (RegexPlus (RegexPlus (RegexPlus (RegexPlus (RegexPlus (RegexStar (RegexPlus (RegexUnion (Str2Reg "`") (Str2Reg "{{"))))))))))) (RegexPlus (RegexUnion (RegexStar (RegexUnion (RegexUnion (RegexStar (RegexStar (RegexUnion (RegexUnion (RegexPlus (Str2Reg "|||")) (RegexPlus (Str2Reg "}"))) (RegexStar (RegexStar (Str2Reg "~~~")))))) (RegexUnion (RegexPlus (RegexStar (RegexUnion (RegexStar (Str2Reg "00")) (RegexPlus (Str2Reg "1"))))) (RegexPlus (RegexUnion (RegexPlus (RegexStar (Str2Reg "2"))) (RegexUnion (RegexStar (Str2Reg "3")) (RegexStar (Str2Reg "44"))))))) (RegexUnion (RegexPlus (RegexUnion (RegexStar (RegexStar (RegexPlus (Str2Reg "555")))) (RegexUnion (RegexPlus (RegexPlus (Str2Reg "66"))) (RegexStar (RegexPlus (Str2Reg "777")))))) (RegexUnion (RegexUnion (RegexStar (RegexStar (RegexUnion (Str2Reg "888") (Str2Reg "99")))) (RegexStar (RegexPlus (RegexPlus (Str2Reg "aa"))))) (RegexUnion (RegexPlus (RegexPlus (RegexStar (Str2Reg "b")))) (RegexUnion (RegexStar (RegexStar (Str2Reg "ccc"))) (RegexPlus (RegexUnion (Str2Reg "ddd") (Str2Reg "ee"))))))))) (RegexStar (RegexPlus (RegexStar (RegexUnion (RegexStar (RegexStar (RegexStar (RegexPlus (Str2Reg "fff"))))) (RegexUnion (RegexStar (RegexUnion (RegexUnion (Str2Reg "g") (Str2Reg "h")) (RegexStar (Str2Reg "ii")))) (RegexPlus (RegexPlus (RegexStar (Str2Reg "j")))))))))))))) (RegexUnion (RegexStar (RegexPlus (RegexStar (RegexUnion (RegexPlus (RegexPlus (RegexStar (RegexUnion (RegexPlus (RegexPlus (RegexStar (RegexStar (Str2Reg "000"))))) (RegexStar (RegexUnion (RegexStar (RegexUnion (Str2Reg "111") (Str2Reg "22"))) (RegexUnion (RegexStar (Str2Reg "3")) (RegexPlus (Str2Reg "44"))))))))) (RegexUnion (RegexUnion (RegexUnion (RegexStar (RegexStar (RegexStar (RegexPlus (RegexPlus (Str2Reg "5")))))) (RegexPlus (RegexUnion (RegexStar (RegexPlus (RegexUnion (Str2Reg "666") (Str2Reg "77")))) (RegexUnion (RegexPlus (RegexPlus (Str2Reg "888"))) (RegexUnion (RegexUnion (Str2Reg "9") (Str2Reg "a")) (RegexUnion (Str2Reg "bb") (Str2Reg "c"))))))) (RegexPlus (RegexStar (RegexStar (RegexStar (RegexStar (RegexPlus (Str2Reg "dd")))))))) (RegexUnion (RegexUnion (RegexPlus (RegexStar (RegexUnion (RegexPlus (RegexUnion (Str2Reg "eee") (Str2Reg "fff"))) (RegexPlus (RegexStar (Str2Reg "ggg")))))) (RegexStar (RegexPlus (RegexStar (RegexStar (RegexPlus (Str2Reg "hh"))))))) (RegexUnion (RegexStar (RegexUnion (RegexUnion (RegexPlus (RegexPlus (Str2Reg "iii"))) (RegexStar (RegexStar (Str2Reg "jj")))) (RegexPlus (RegexStar (RegexUnion (Str2Reg "kk") (Str2Reg "lll")))))) (RegexStar (RegexStar (RegexStar (RegexUnion (RegexStar (Str2Reg "mm")) (RegexPlus (Str2Reg "nnn"))))))))))))) (RegexStar (RegexStar (RegexStar (RegexStar (RegexUnion (RegexUnion (RegexUnion (RegexStar (RegexUnion (RegexStar (RegexStar (RegexUnion (Str2Reg "oo") (Str2Reg "ppp")))) (RegexStar (RegexStar (RegexStar (Str2Reg "q")))))) (RegexPlus (RegexUnion (RegexUnion (RegexPlus (RegexUnion (Str2Reg "r") (Str2Reg "s"))) (RegexStar (RegexUnion (Str2Reg "tt") (Str2Reg "uu")))) (RegexUnion (RegexUnion (RegexUnion (Str2Reg "vv") (Str2Reg "www")) (RegexStar (Str2Reg "xx"))) (RegexUnion (RegexStar (Str2Reg "yyy")) (RegexPlus (Str2Reg "zz"))))))) (RegexStar (RegexPlus (RegexPlus (RegexPlus (RegexUnion (RegexUnion (Str2Reg "AA") (Str2Reg "B")) (RegexPlus (Str2Reg "CCC")))))))) (RegexUnion (RegexStar (RegexPlus (RegexPlus (RegexStar (RegexStar (RegexUnion (Str2Reg "DDD") (Str2Reg "E"))))))) (RegexStar (RegexUnion (RegexUnion (RegexUnion (RegexStar (RegexPlus (Str2Reg "FF"))) (RegexUnion (RegexPlus (Str2Reg "G")) (RegexUnion (Str2Reg "HH") (Str2Reg "I")))) (RegexStar (RegexStar (RegexPlus (Str2Reg "J"))))) (RegexUnion (RegexPlus (RegexPlus (RegexUnion (Str2Reg "KK") (Str2Reg "LLL")))) (RegexUnion (RegexStar (RegexPlus (Str2Reg "M"))) (RegexPlus (RegexUnion (Str2Reg "NN") (Str2Reg "OO")))))))))))))))))
(assert (<= 15 (Length var0)))
(check-sat)